
  12    4
  10   10   10   10

   0   0   0   0   0   4 2 3 4 8 
   3  10  10  10  10   3 7 6 5 
  10  10  10  10  10   3 11 6 5 
   7  10  10  10  10   3 11 10 9 
   1  10  10  10  10   2 10 9 
   2  10  10  10  10   2 10 9 
   3  10  10  10  10   2 11 9 
   5  10  10  10  10   2 10 9 
   4  10  10  10  10   1 12
  10  10  10  10  10   1 12
   8  10  10  10  10   1 12
   0   0   0   0   0   0 
